Si
2
Line-mode
Cartesian
0.500000  0.500000  0.500000
0.461538  0.461538  0.461538
0.423077  0.423077  0.423077
0.384615  0.384615  0.384615
0.346154  0.346154  0.346154
0.307692  0.307692  0.307692
0.269231  0.269231  0.269231
0.230769  0.230769  0.230769
0.192308  0.192308  0.192308
0.153846  0.153846  0.153846
0.115385  0.115385  0.115385
0.076923  0.076923  0.076923
0.038462  0.038462  0.038462
0.000000  0.000000  0.000000
0.000000  0.066667  0.000000
0.000000  0.133333  0.000000
0.000000  0.200000  0.000000
0.000000  0.266667  0.000000
0.000000  0.333333  0.000000
0.000000  0.400000  0.000000
0.000000  0.466667  0.000000
0.000000  0.533333  0.000000
0.000000  0.600000  0.000000
0.000000  0.666667  0.000000
0.000000  0.733333  0.000000
0.000000  0.800000  0.000000
0.000000  0.866667  0.000000
0.000000  0.933333  0.000000
0.000000  1.000000  0.000000
0.071429  1.000000  0.000000
0.142857  1.000000  0.000000
0.214286  1.000000  0.000000
0.285714  1.000000  0.000000
0.357143  1.000000  0.000000
0.428571  1.000000  0.000000
0.500000  1.000000  0.000000
0.550000  0.950000  0.000000
0.600000  0.900000  0.000000
0.650000  0.850000  0.000000
0.700000  0.800000  0.000000
0.750000  0.750000  0.000000
0.700000  0.700000  0.000000
0.650000  0.650000  0.000000
0.600000  0.600000  0.000000
0.550000  0.550000  0.000000
0.500000  0.500000  0.000000
0.450000  0.450000  0.000000
0.400000  0.400000  0.000000
0.350000  0.350000  0.000000
0.300000  0.300000  0.000000
0.250000  0.250000  0.000000
0.200000  0.200000  0.000000
0.150000  0.150000  0.000000
0.100000  0.100000  0.000000
0.050000  0.050000  0.000000
0.000000  0.000000  0.000000
