Ti
2
Line-mode
Cartesian
0.000000  0.000000  0.000000
0.008621  -0.004977 0.000000
0.017241  -0.009954 0.000000
0.025862  -0.014931 0.000000
0.034483  -0.019909 0.000000
0.043103  -0.024886 0.000000
0.051724  -0.029863 0.000000
0.060345  -0.034840 0.000000
0.068966  -0.039817 0.000000
0.077586  -0.044794 0.000000
0.086207  -0.049772 0.000000
0.094828  -0.054749 0.000000
0.103448  -0.059726 0.000000
0.112069  -0.064703 0.000000
0.120690  -0.069680 0.000000
0.129310  -0.074657 0.000000
0.137931  -0.079634 0.000000
0.146552  -0.084612 0.000000
0.155172  -0.089589 0.000000
0.163793  -0.094566 0.000000
0.172414  -0.099543 0.000000
0.181034  -0.104520 0.000000
0.189655  -0.109497 0.000000
0.198276  -0.114475 0.000000
0.206897  -0.119452 0.000000
0.215517  -0.124429 0.000000
0.224138  -0.129406 0.000000
0.232759  -0.134383 0.000000
0.241379  -0.139360 0.000000
0.250000  -0.144338 0.000000
0.258621  -0.149315 0.000000
0.267241  -0.154292 0.000000
0.275862  -0.159269 0.000000
0.284483  -0.164246 0.000000
0.293103  -0.169223 0.000000
0.301724  -0.174200 0.000000
0.310345  -0.179178 0.000000
0.318966  -0.184155 0.000000
0.327586  -0.189132 0.000000
0.336207  -0.194109 0.000000
0.344828  -0.199086 0.000000
0.353448  -0.204063 0.000000
0.362069  -0.209041 0.000000
0.370690  -0.214018 0.000000
0.379310  -0.218995 0.000000
0.387931  -0.223972 0.000000
0.396552  -0.228949 0.000000
0.405172  -0.233926 0.000000
0.413793  -0.238903 0.000000
0.422414  -0.243881 0.000000
0.431034  -0.248858 0.000000
0.439655  -0.253835 0.000000
0.448276  -0.258812 0.000000
0.456897  -0.263789 0.000000
0.465517  -0.268766 0.000000
0.474138  -0.273744 0.000000
0.482759  -0.278721 0.000000
0.491379  -0.283698 0.000000
0.500000  -0.288675 0.000000
0.504902  -0.280185 0.000000
0.509804  -0.271694 0.000000
0.514706  -0.263204 0.000000
0.519608  -0.254713 0.000000
0.524510  -0.246223 0.000000
0.529412  -0.237732 0.000000
0.534314  -0.229242 0.000000
0.539216  -0.220751 0.000000
0.544118  -0.212261 0.000000
0.549020  -0.203771 0.000000
0.553922  -0.195280 0.000000
0.558824  -0.186790 0.000000
0.563726  -0.178299 0.000000
0.568628  -0.169809 0.000000
0.573530  -0.161318 0.000000
0.578432  -0.152828 0.000000
0.583333  -0.144338 0.000000
0.588235  -0.135847 0.000000
0.593137  -0.127357 0.000000
0.598039  -0.118866 0.000000
0.602941  -0.110376 0.000000
0.607843  -0.101885 0.000000
0.612745  -0.093395 0.000000
0.617647  -0.084904 0.000000
0.622549  -0.076414 0.000000
0.627451  -0.067924 0.000000
0.632353  -0.059433 0.000000
0.637255  -0.050943 0.000000
0.642157  -0.042452 0.000000
0.647059  -0.033962 0.000000
0.651961  -0.025471 0.000000
0.656863  -0.016981 0.000000
0.661765  -0.008490 0.000000
0.666667  0.000000  0.000000
0.656717  0.000000  0.000000
0.646766  0.000000  0.000000
0.636816  0.000000  0.000000
0.626866  0.000000  0.000000
0.616916  0.000000  0.000000
0.606965  0.000000  0.000000
0.597015  0.000000  0.000000
0.587065  0.000000  0.000000
0.577115  0.000000  0.000000
0.567164  0.000000  0.000000
0.557214  0.000000  0.000000
0.547264  0.000000  0.000000
0.537314  0.000000  0.000000
0.527363  0.000000  0.000000
0.517413  0.000000  0.000000
0.507463  0.000000  0.000000
0.497513  0.000000  0.000000
0.487562  0.000000  0.000000
0.477612  0.000000  0.000000
0.467662  0.000000  0.000000
0.457712  0.000000  0.000000
0.447761  0.000000  0.000000
0.437811  0.000000  0.000000
0.427861  0.000000  0.000000
0.417911  0.000000  0.000000
0.407960  0.000000  0.000000
0.398010  0.000000  0.000000
0.388060  0.000000  0.000000
0.378110  0.000000  0.000000
0.368159  0.000000  0.000000
0.358209  0.000000  0.000000
0.348259  0.000000  0.000000
0.338309  0.000000  0.000000
0.328358  0.000000  0.000000
0.318408  0.000000  0.000000
0.308458  0.000000  0.000000
0.298508  0.000000  0.000000
0.288557  0.000000  0.000000
0.278607  0.000000  0.000000
0.268657  0.000000  0.000000
0.258707  0.000000  0.000000
0.248756  0.000000  0.000000
0.238806  0.000000  0.000000
0.228856  0.000000  0.000000
0.218906  0.000000  0.000000
0.208955  0.000000  0.000000
0.199005  0.000000  0.000000
0.189055  0.000000  0.000000
0.179105  0.000000  0.000000
0.169154  0.000000  0.000000
0.159204  0.000000  0.000000
0.149254  0.000000  0.000000
0.139304  0.000000  0.000000
0.129353  0.000000  0.000000
0.119403  0.000000  0.000000
0.109453  0.000000  0.000000
0.099503  0.000000  0.000000
0.089552  0.000000  0.000000
0.079602  0.000000  0.000000
0.069652  0.000000  0.000000
0.059702  0.000000  0.000000
0.049751  0.000000  0.000000
0.039801  0.000000  0.000000
0.029851  0.000000  0.000000
0.019901  0.000000  0.000000
0.009950  0.000000  0.000000
0.000000  0.000000  0.000000
0.000000  0.000000  0.009849
0.000000  0.000000  0.019698
0.000000  0.000000  0.029547
0.000000  0.000000  0.039396
0.000000  0.000000  0.049245
0.000000  0.000000  0.059095
0.000000  0.000000  0.068944
0.000000  0.000000  0.078793
0.000000  0.000000  0.088642
0.000000  0.000000  0.098491
0.000000  0.000000  0.108340
0.000000  0.000000  0.118189
0.000000  0.000000  0.128038
0.000000  0.000000  0.137887
0.000000  0.000000  0.147736
0.000000  0.000000  0.157585
0.000000  0.000000  0.167435
0.000000  0.000000  0.177284
0.000000  0.000000  0.187133
0.000000  0.000000  0.196982
0.000000  0.000000  0.206831
0.000000  0.000000  0.216680
0.000000  0.000000  0.226529
0.000000  0.000000  0.236378
0.000000  0.000000  0.246227
0.000000  0.000000  0.256076
0.000000  0.000000  0.265926
0.000000  0.000000  0.275775
0.000000  0.000000  0.285624
0.000000  0.000000  0.295473
0.000000  0.000000  0.305322
0.000000  0.000000  0.315171
